c FILE: queen9_9.col
c Translated from Stanford GraphBase File: queen9_9.sgb
c Stanford GraphBase ID: gunion(board(9,9,0,0,-1,0,0),board(9,9,0,0,-2,0,0),0,0)
p edge 81 2112
e 1 11
e 1 21
e 1 31
e 1 41
e 1 51
e 1 61
e 1 71
e 1 81
e 1 2
e 1 3
e 1 4
e 1 5
e 1 6
e 1 7
e 1 8
e 1 9
e 1 10
e 1 19
e 1 28
e 1 37
e 1 46
e 1 55
e 1 64
e 1 73
e 2 12
e 2 22
e 2 32
e 2 42
e 2 52
e 2 62
e 2 72
e 2 10
e 2 3
e 2 4
e 2 5
e 2 6
e 2 7
e 2 8
e 2 9
e 2 11
e 2 20
e 2 29
e 2 38
e 2 47
e 2 56
e 2 65
e 2 74
e 2 1
e 3 13
e 3 23
e 3 33
e 3 43
e 3 53
e 3 63
e 3 11
e 3 19
e 3 4
e 3 5
e 3 6
e 3 7
e 3 8
e 3 9
e 3 12
e 3 21
e 3 30
e 3 39
e 3 48
e 3 57
e 3 66
e 3 75
e 3 2
e 3 1
e 4 14
e 4 24
e 4 34
e 4 44
e 4 54
e 4 12
e 4 20
e 4 28
e 4 5
e 4 6
e 4 7
e 4 8
e 4 9
e 4 13
e 4 22
e 4 31
e 4 40
e 4 49
e 4 58
e 4 67
e 4 76
e 4 3
e 4 2
e 4 1
e 5 15
e 5 25
e 5 35
e 5 45
e 5 13
e 5 21
e 5 29
e 5 37
e 5 6
e 5 7
e 5 8
e 5 9
e 5 14
e 5 23
e 5 32
e 5 41
e 5 50
e 5 59
e 5 68
e 5 77
e 5 4
e 5 3
e 5 2
e 5 1
e 6 16
e 6 26
e 6 36
e 6 14
e 6 22
e 6 30
e 6 38
e 6 46
e 6 7
e 6 8
e 6 9
e 6 15
e 6 24
e 6 33
e 6 42
e 6 51
e 6 60
e 6 69
e 6 78
e 6 5
e 6 4
e 6 3
e 6 2
e 6 1
e 7 17
e 7 27
e 7 15
e 7 23
e 7 31
e 7 39
e 7 47
e 7 55
e 7 8
e 7 9
e 7 16
e 7 25
e 7 34
e 7 43
e 7 52
e 7 61
e 7 70
e 7 79
e 7 6
e 7 5
e 7 4
e 7 3
e 7 2
e 7 1
e 8 18
e 8 16
e 8 24
e 8 32
e 8 40
e 8 48
e 8 56
e 8 64
e 8 9
e 8 17
e 8 26
e 8 35
e 8 44
e 8 53
e 8 62
e 8 71
e 8 80
e 8 7
e 8 6
e 8 5
e 8 4
e 8 3
e 8 2
e 8 1
e 9 17
e 9 25
e 9 33
e 9 41
e 9 49
e 9 57
e 9 65
e 9 73
e 9 18
e 9 27
e 9 36
e 9 45
e 9 54
e 9 63
e 9 72
e 9 81
e 9 8
e 9 7
e 9 6
e 9 5
e 9 4
e 9 3
e 9 2
e 9 1
e 10 20
e 10 30
e 10 40
e 10 50
e 10 60
e 10 70
e 10 80
e 10 11
e 10 12
e 10 13
e 10 14
e 10 15
e 10 16
e 10 17
e 10 18
e 10 19
e 10 28
e 10 37
e 10 46
e 10 55
e 10 64
e 10 73
e 10 2
e 10 1
e 11 21
e 11 31
e 11 41
e 11 51
e 11 61
e 11 71
e 11 81
e 11 19
e 11 12
e 11 13
e 11 14
e 11 15
e 11 16
e 11 17
e 11 18
e 11 20
e 11 29
e 11 38
e 11 47
e 11 56
e 11 65
e 11 74
e 11 10
e 11 3
e 11 2
e 11 1
e 12 22
e 12 32
e 12 42
e 12 52
e 12 62
e 12 72
e 12 20
e 12 28
e 12 13
e 12 14
e 12 15
e 12 16
e 12 17
e 12 18
e 12 21
e 12 30
e 12 39
e 12 48
e 12 57
e 12 66
e 12 75
e 12 11
e 12 10
e 12 4
e 12 3
e 12 2
e 13 23
e 13 33
e 13 43
e 13 53
e 13 63
e 13 21
e 13 29
e 13 37
e 13 14
e 13 15
e 13 16
e 13 17
e 13 18
e 13 22
e 13 31
e 13 40
e 13 49
e 13 58
e 13 67
e 13 76
e 13 12
e 13 11
e 13 10
e 13 5
e 13 4
e 13 3
e 14 24
e 14 34
e 14 44
e 14 54
e 14 22
e 14 30
e 14 38
e 14 46
e 14 15
e 14 16
e 14 17
e 14 18
e 14 23
e 14 32
e 14 41
e 14 50
e 14 59
e 14 68
e 14 77
e 14 13
e 14 12
e 14 11
e 14 10
e 14 6
e 14 5
e 14 4
e 15 25
e 15 35
e 15 45
e 15 23
e 15 31
e 15 39
e 15 47
e 15 55
e 15 16
e 15 17
e 15 18
e 15 24
e 15 33
e 15 42
e 15 51
e 15 60
e 15 69
e 15 78
e 15 14
e 15 13
e 15 12
e 15 11
e 15 10
e 15 7
e 15 6
e 15 5
e 16 26
e 16 36
e 16 24
e 16 32
e 16 40
e 16 48
e 16 56
e 16 64
e 16 17
e 16 18
e 16 25
e 16 34
e 16 43
e 16 52
e 16 61
e 16 70
e 16 79
e 16 15
e 16 14
e 16 13
e 16 12
e 16 11
e 16 10
e 16 8
e 16 7
e 16 6
e 17 27
e 17 25
e 17 33
e 17 41
e 17 49
e 17 57
e 17 65
e 17 73
e 17 18
e 17 26
e 17 35
e 17 44
e 17 53
e 17 62
e 17 71
e 17 80
e 17 16
e 17 15
e 17 14
e 17 13
e 17 12
e 17 11
e 17 10
e 17 9
e 17 8
e 17 7
e 18 26
e 18 34
e 18 42
e 18 50
e 18 58
e 18 66
e 18 74
e 18 27
e 18 36
e 18 45
e 18 54
e 18 63
e 18 72
e 18 81
e 18 17
e 18 16
e 18 15
e 18 14
e 18 13
e 18 12
e 18 11
e 18 10
e 18 9
e 18 8
e 19 29
e 19 39
e 19 49
e 19 59
e 19 69
e 19 79
e 19 20
e 19 21
e 19 22
e 19 23
e 19 24
e 19 25
e 19 26
e 19 27
e 19 28
e 19 37
e 19 46
e 19 55
e 19 64
e 19 73
e 19 11
e 19 10
e 19 3
e 19 1
e 20 30
e 20 40
e 20 50
e 20 60
e 20 70
e 20 80
e 20 28
e 20 21
e 20 22
e 20 23
e 20 24
e 20 25
e 20 26
e 20 27
e 20 29
e 20 38
e 20 47
e 20 56
e 20 65
e 20 74
e 20 19
e 20 12
e 20 11
e 20 10
e 20 4
e 20 2
e 21 31
e 21 41
e 21 51
e 21 61
e 21 71
e 21 81
e 21 29
e 21 37
e 21 22
e 21 23
e 21 24
e 21 25
e 21 26
e 21 27
e 21 30
e 21 39
e 21 48
e 21 57
e 21 66
e 21 75
e 21 20
e 21 19
e 21 13
e 21 12
e 21 11
e 21 5
e 21 3
e 21 1
e 22 32
e 22 42
e 22 52
e 22 62
e 22 72
e 22 30
e 22 38
e 22 46
e 22 23
e 22 24
e 22 25
e 22 26
e 22 27
e 22 31
e 22 40
e 22 49
e 22 58
e 22 67
e 22 76
e 22 21
e 22 20
e 22 19
e 22 14
e 22 13
e 22 12
e 22 6
e 22 4
e 22 2
e 23 33
e 23 43
e 23 53
e 23 63
e 23 31
e 23 39
e 23 47
e 23 55
e 23 24
e 23 25
e 23 26
e 23 27
e 23 32
e 23 41
e 23 50
e 23 59
e 23 68
e 23 77
e 23 22
e 23 21
e 23 20
e 23 19
e 23 15
e 23 14
e 23 13
e 23 7
e 23 5
e 23 3
e 24 34
e 24 44
e 24 54
e 24 32
e 24 40
e 24 48
e 24 56
e 24 64
e 24 25
e 24 26
e 24 27
e 24 33
e 24 42
e 24 51
e 24 60
e 24 69
e 24 78
e 24 23
e 24 22
e 24 21
e 24 20
e 24 19
e 24 16
e 24 15
e 24 14
e 24 8
e 24 6
e 24 4
e 25 35
e 25 45
e 25 33
e 25 41
e 25 49
e 25 57
e 25 65
e 25 73
e 25 26
e 25 27
e 25 34
e 25 43
e 25 52
e 25 61
e 25 70
e 25 79
e 25 24
e 25 23
e 25 22
e 25 21
e 25 20
e 25 19
e 25 17
e 25 16
e 25 15
e 25 9
e 25 7
e 25 5
e 26 36
e 26 34
e 26 42
e 26 50
e 26 58
e 26 66
e 26 74
e 26 27
e 26 35
e 26 44
e 26 53
e 26 62
e 26 71
e 26 80
e 26 25
e 26 24
e 26 23
e 26 22
e 26 21
e 26 20
e 26 19
e 26 18
e 26 17
e 26 16
e 26 8
e 26 6
e 27 35
e 27 43
e 27 51
e 27 59
e 27 67
e 27 75
e 27 36
e 27 45
e 27 54
e 27 63
e 27 72
e 27 81
e 27 26
e 27 25
e 27 24
e 27 23
e 27 22
e 27 21
e 27 20
e 27 19
e 27 18
e 27 17
e 27 9
e 27 7
e 28 38
e 28 48
e 28 58
e 28 68
e 28 78
e 28 29
e 28 30
e 28 31
e 28 32
e 28 33
e 28 34
e 28 35
e 28 36
e 28 37
e 28 46
e 28 55
e 28 64
e 28 73
e 28 20
e 28 19
e 28 12
e 28 10
e 28 4
e 28 1
e 29 39
e 29 49
e 29 59
e 29 69
e 29 79
e 29 37
e 29 30
e 29 31
e 29 32
e 29 33
e 29 34
e 29 35
e 29 36
e 29 38
e 29 47
e 29 56
e 29 65
e 29 74
e 29 28
e 29 21
e 29 20
e 29 19
e 29 13
e 29 11
e 29 5
e 29 2
e 30 40
e 30 50
e 30 60
e 30 70
e 30 80
e 30 38
e 30 46
e 30 31
e 30 32
e 30 33
e 30 34
e 30 35
e 30 36
e 30 39
e 30 48
e 30 57
e 30 66
e 30 75
e 30 29
e 30 28
e 30 22
e 30 21
e 30 20
e 30 14
e 30 12
e 30 10
e 30 6
e 30 3
e 31 41
e 31 51
e 31 61
e 31 71
e 31 81
e 31 39
e 31 47
e 31 55
e 31 32
e 31 33
e 31 34
e 31 35
e 31 36
e 31 40
e 31 49
e 31 58
e 31 67
e 31 76
e 31 30
e 31 29
e 31 28
e 31 23
e 31 22
e 31 21
e 31 15
e 31 13
e 31 11
e 31 7
e 31 4
e 31 1
e 32 42
e 32 52
e 32 62
e 32 72
e 32 40
e 32 48
e 32 56
e 32 64
e 32 33
e 32 34
e 32 35
e 32 36
e 32 41
e 32 50
e 32 59
e 32 68
e 32 77
e 32 31
e 32 30
e 32 29
e 32 28
e 32 24
e 32 23
e 32 22
e 32 16
e 32 14
e 32 12
e 32 8
e 32 5
e 32 2
e 33 43
e 33 53
e 33 63
e 33 41
e 33 49
e 33 57
e 33 65
e 33 73
e 33 34
e 33 35
e 33 36
e 33 42
e 33 51
e 33 60
e 33 69
e 33 78
e 33 32
e 33 31
e 33 30
e 33 29
e 33 28
e 33 25
e 33 24
e 33 23
e 33 17
e 33 15
e 33 13
e 33 9
e 33 6
e 33 3
e 34 44
e 34 54
e 34 42
e 34 50
e 34 58
e 34 66
e 34 74
e 34 35
e 34 36
e 34 43
e 34 52
e 34 61
e 34 70
e 34 79
e 34 33
e 34 32
e 34 31
e 34 30
e 34 29
e 34 28
e 34 26
e 34 25
e 34 24
e 34 18
e 34 16
e 34 14
e 34 7
e 34 4
e 35 45
e 35 43
e 35 51
e 35 59
e 35 67
e 35 75
e 35 36
e 35 44
e 35 53
e 35 62
e 35 71
e 35 80
e 35 34
e 35 33
e 35 32
e 35 31
e 35 30
e 35 29
e 35 28
e 35 27
e 35 26
e 35 25
e 35 17
e 35 15
e 35 8
e 35 5
e 36 44
e 36 52
e 36 60
e 36 68
e 36 76
e 36 45
e 36 54
e 36 63
e 36 72
e 36 81
e 36 35
e 36 34
e 36 33
e 36 32
e 36 31
e 36 30
e 36 29
e 36 28
e 36 27
e 36 26
e 36 18
e 36 16
e 36 9
e 36 6
e 37 47
e 37 57
e 37 67
e 37 77
e 37 38
e 37 39
e 37 40
e 37 41
e 37 42
e 37 43
e 37 44
e 37 45
e 37 46
e 37 55
e 37 64
e 37 73
e 37 29
e 37 28
e 37 21
e 37 19
e 37 13
e 37 10
e 37 5
e 37 1
e 38 48
e 38 58
e 38 68
e 38 78
e 38 46
e 38 39
e 38 40
e 38 41
e 38 42
e 38 43
e 38 44
e 38 45
e 38 47
e 38 56
e 38 65
e 38 74
e 38 37
e 38 30
e 38 29
e 38 28
e 38 22
e 38 20
e 38 14
e 38 11
e 38 6
e 38 2
e 39 49
e 39 59
e 39 69
e 39 79
e 39 47
e 39 55
e 39 40
e 39 41
e 39 42
e 39 43
e 39 44
e 39 45
e 39 48
e 39 57
e 39 66
e 39 75
e 39 38
e 39 37
e 39 31
e 39 30
e 39 29
e 39 23
e 39 21
e 39 19
e 39 15
e 39 12
e 39 7
e 39 3
e 40 50
e 40 60
e 40 70
e 40 80
e 40 48
e 40 56
e 40 64
e 40 41
e 40 42
e 40 43
e 40 44
e 40 45
e 40 49
e 40 58
e 40 67
e 40 76
e 40 39
e 40 38
e 40 37
e 40 32
e 40 31
e 40 30
e 40 24
e 40 22
e 40 20
e 40 16
e 40 13
e 40 10
e 40 8
e 40 4
e 41 51
e 41 61
e 41 71
e 41 81
e 41 49
e 41 57
e 41 65
e 41 73
e 41 42
e 41 43
e 41 44
e 41 45
e 41 50
e 41 59
e 41 68
e 41 77
e 41 40
e 41 39
e 41 38
e 41 37
e 41 33
e 41 32
e 41 31
e 41 25
e 41 23
e 41 21
e 41 17
e 41 14
e 41 11
e 41 9
e 41 5
e 41 1
e 42 52
e 42 62
e 42 72
e 42 50
e 42 58
e 42 66
e 42 74
e 42 43
e 42 44
e 42 45
e 42 51
e 42 60
e 42 69
e 42 78
e 42 41
e 42 40
e 42 39
e 42 38
e 42 37
e 42 34
e 42 33
e 42 32
e 42 26
e 42 24
e 42 22
e 42 18
e 42 15
e 42 12
e 42 6
e 42 2
e 43 53
e 43 63
e 43 51
e 43 59
e 43 67
e 43 75
e 43 44
e 43 45
e 43 52
e 43 61
e 43 70
e 43 79
e 43 42
e 43 41
e 43 40
e 43 39
e 43 38
e 43 37
e 43 35
e 43 34
e 43 33
e 43 27
e 43 25
e 43 23
e 43 16
e 43 13
e 43 7
e 43 3
e 44 54
e 44 52
e 44 60
e 44 68
e 44 76
e 44 45
e 44 53
e 44 62
e 44 71
e 44 80
e 44 43
e 44 42
e 44 41
e 44 40
e 44 39
e 44 38
e 44 37
e 44 36
e 44 35
e 44 34
e 44 26
e 44 24
e 44 17
e 44 14
e 44 8
e 44 4
e 45 53
e 45 61
e 45 69
e 45 77
e 45 54
e 45 63
e 45 72
e 45 81
e 45 44
e 45 43
e 45 42
e 45 41
e 45 40
e 45 39
e 45 38
e 45 37
e 45 36
e 45 35
e 45 27
e 45 25
e 45 18
e 45 15
e 45 9
e 45 5
e 46 56
e 46 66
e 46 76
e 46 47
e 46 48
e 46 49
e 46 50
e 46 51
e 46 52
e 46 53
e 46 54
e 46 55
e 46 64
e 46 73
e 46 38
e 46 37
e 46 30
e 46 28
e 46 22
e 46 19
e 46 14
e 46 10
e 46 6
e 46 1
e 47 57
e 47 67
e 47 77
e 47 55
e 47 48
e 47 49
e 47 50
e 47 51
e 47 52
e 47 53
e 47 54
e 47 56
e 47 65
e 47 74
e 47 46
e 47 39
e 47 38
e 47 37
e 47 31
e 47 29
e 47 23
e 47 20
e 47 15
e 47 11
e 47 7
e 47 2
e 48 58
e 48 68
e 48 78
e 48 56
e 48 64
e 48 49
e 48 50
e 48 51
e 48 52
e 48 53
e 48 54
e 48 57
e 48 66
e 48 75
e 48 47
e 48 46
e 48 40
e 48 39
e 48 38
e 48 32
e 48 30
e 48 28
e 48 24
e 48 21
e 48 16
e 48 12
e 48 8
e 48 3
e 49 59
e 49 69
e 49 79
e 49 57
e 49 65
e 49 73
e 49 50
e 49 51
e 49 52
e 49 53
e 49 54
e 49 58
e 49 67
e 49 76
e 49 48
e 49 47
e 49 46
e 49 41
e 49 40
e 49 39
e 49 33
e 49 31
e 49 29
e 49 25
e 49 22
e 49 19
e 49 17
e 49 13
e 49 9
e 49 4
e 50 60
e 50 70
e 50 80
e 50 58
e 50 66
e 50 74
e 50 51
e 50 52
e 50 53
e 50 54
e 50 59
e 50 68
e 50 77
e 50 49
e 50 48
e 50 47
e 50 46
e 50 42
e 50 41
e 50 40
e 50 34
e 50 32
e 50 30
e 50 26
e 50 23
e 50 20
e 50 18
e 50 14
e 50 10
e 50 5
e 51 61
e 51 71
e 51 81
e 51 59
e 51 67
e 51 75
e 51 52
e 51 53
e 51 54
e 51 60
e 51 69
e 51 78
e 51 50
e 51 49
e 51 48
e 51 47
e 51 46
e 51 43
e 51 42
e 51 41
e 51 35
e 51 33
e 51 31
e 51 27
e 51 24
e 51 21
e 51 15
e 51 11
e 51 6
e 51 1
e 52 62
e 52 72
e 52 60
e 52 68
e 52 76
e 52 53
e 52 54
e 52 61
e 52 70
e 52 79
e 52 51
e 52 50
e 52 49
e 52 48
e 52 47
e 52 46
e 52 44
e 52 43
e 52 42
e 52 36
e 52 34
e 52 32
e 52 25
e 52 22
e 52 16
e 52 12
e 52 7
e 52 2
e 53 63
e 53 61
e 53 69
e 53 77
e 53 54
e 53 62
e 53 71
e 53 80
e 53 52
e 53 51
e 53 50
e 53 49
e 53 48
e 53 47
e 53 46
e 53 45
e 53 44
e 53 43
e 53 35
e 53 33
e 53 26
e 53 23
e 53 17
e 53 13
e 53 8
e 53 3
e 54 62
e 54 70
e 54 78
e 54 63
e 54 72
e 54 81
e 54 53
e 54 52
e 54 51
e 54 50
e 54 49
e 54 48
e 54 47
e 54 46
e 54 45
e 54 44
e 54 36
e 54 34
e 54 27
e 54 24
e 54 18
e 54 14
e 54 9
e 54 4
e 55 65
e 55 75
e 55 56
e 55 57
e 55 58
e 55 59
e 55 60
e 55 61
e 55 62
e 55 63
e 55 64
e 55 73
e 55 47
e 55 46
e 55 39
e 55 37
e 55 31
e 55 28
e 55 23
e 55 19
e 55 15
e 55 10
e 55 7
e 55 1
e 56 66
e 56 76
e 56 64
e 56 57
e 56 58
e 56 59
e 56 60
e 56 61
e 56 62
e 56 63
e 56 65
e 56 74
e 56 55
e 56 48
e 56 47
e 56 46
e 56 40
e 56 38
e 56 32
e 56 29
e 56 24
e 56 20
e 56 16
e 56 11
e 56 8
e 56 2
e 57 67
e 57 77
e 57 65
e 57 73
e 57 58
e 57 59
e 57 60
e 57 61
e 57 62
e 57 63
e 57 66
e 57 75
e 57 56
e 57 55
e 57 49
e 57 48
e 57 47
e 57 41
e 57 39
e 57 37
e 57 33
e 57 30
e 57 25
e 57 21
e 57 17
e 57 12
e 57 9
e 57 3
e 58 68
e 58 78
e 58 66
e 58 74
e 58 59
e 58 60
e 58 61
e 58 62
e 58 63
e 58 67
e 58 76
e 58 57
e 58 56
e 58 55
e 58 50
e 58 49
e 58 48
e 58 42
e 58 40
e 58 38
e 58 34
e 58 31
e 58 28
e 58 26
e 58 22
e 58 18
e 58 13
e 58 4
e 59 69
e 59 79
e 59 67
e 59 75
e 59 60
e 59 61
e 59 62
e 59 63
e 59 68
e 59 77
e 59 58
e 59 57
e 59 56
e 59 55
e 59 51
e 59 50
e 59 49
e 59 43
e 59 41
e 59 39
e 59 35
e 59 32
e 59 29
e 59 27
e 59 23
e 59 19
e 59 14
e 59 5
e 60 70
e 60 80
e 60 68
e 60 76
e 60 61
e 60 62
e 60 63
e 60 69
e 60 78
e 60 59
e 60 58
e 60 57
e 60 56
e 60 55
e 60 52
e 60 51
e 60 50
e 60 44
e 60 42
e 60 40
e 60 36
e 60 33
e 60 30
e 60 24
e 60 20
e 60 15
e 60 10
e 60 6
e 61 71
e 61 81
e 61 69
e 61 77
e 61 62
e 61 63
e 61 70
e 61 79
e 61 60
e 61 59
e 61 58
e 61 57
e 61 56
e 61 55
e 61 53
e 61 52
e 61 51
e 61 45
e 61 43
e 61 41
e 61 34
e 61 31
e 61 25
e 61 21
e 61 16
e 61 11
e 61 7
e 61 1
e 62 72
e 62 70
e 62 78
e 62 63
e 62 71
e 62 80
e 62 61
e 62 60
e 62 59
e 62 58
e 62 57
e 62 56
e 62 55
e 62 54
e 62 53
e 62 52
e 62 44
e 62 42
e 62 35
e 62 32
e 62 26
e 62 22
e 62 17
e 62 12
e 62 8
e 62 2
e 63 71
e 63 79
e 63 72
e 63 81
e 63 62
e 63 61
e 63 60
e 63 59
e 63 58
e 63 57
e 63 56
e 63 55
e 63 54
e 63 53
e 63 45
e 63 43
e 63 36
e 63 33
e 63 27
e 63 23
e 63 18
e 63 13
e 63 9
e 63 3
e 64 74
e 64 65
e 64 66
e 64 67
e 64 68
e 64 69
e 64 70
e 64 71
e 64 72
e 64 73
e 64 56
e 64 55
e 64 48
e 64 46
e 64 40
e 64 37
e 64 32
e 64 28
e 64 24
e 64 19
e 64 16
e 64 10
e 64 8
e 64 1
e 65 75
e 65 73
e 65 66
e 65 67
e 65 68
e 65 69
e 65 70
e 65 71
e 65 72
e 65 74
e 65 64
e 65 57
e 65 56
e 65 55
e 65 49
e 65 47
e 65 41
e 65 38
e 65 33
e 65 29
e 65 25
e 65 20
e 65 17
e 65 11
e 65 9
e 65 2
e 66 76
e 66 74
e 66 67
e 66 68
e 66 69
e 66 70
e 66 71
e 66 72
e 66 75
e 66 65
e 66 64
e 66 58
e 66 57
e 66 56
e 66 50
e 66 48
e 66 46
e 66 42
e 66 39
e 66 34
e 66 30
e 66 26
e 66 21
e 66 18
e 66 12
e 66 3
e 67 77
e 67 75
e 67 68
e 67 69
e 67 70
e 67 71
e 67 72
e 67 76
e 67 66
e 67 65
e 67 64
e 67 59
e 67 58
e 67 57
e 67 51
e 67 49
e 67 47
e 67 43
e 67 40
e 67 37
e 67 35
e 67 31
e 67 27
e 67 22
e 67 13
e 67 4
e 68 78
e 68 76
e 68 69
e 68 70
e 68 71
e 68 72
e 68 77
e 68 67
e 68 66
e 68 65
e 68 64
e 68 60
e 68 59
e 68 58
e 68 52
e 68 50
e 68 48
e 68 44
e 68 41
e 68 38
e 68 36
e 68 32
e 68 28
e 68 23
e 68 14
e 68 5
e 69 79
e 69 77
e 69 70
e 69 71
e 69 72
e 69 78
e 69 68
e 69 67
e 69 66
e 69 65
e 69 64
e 69 61
e 69 60
e 69 59
e 69 53
e 69 51
e 69 49
e 69 45
e 69 42
e 69 39
e 69 33
e 69 29
e 69 24
e 69 19
e 69 15
e 69 6
e 70 80
e 70 78
e 70 71
e 70 72
e 70 79
e 70 69
e 70 68
e 70 67
e 70 66
e 70 65
e 70 64
e 70 62
e 70 61
e 70 60
e 70 54
e 70 52
e 70 50
e 70 43
e 70 40
e 70 34
e 70 30
e 70 25
e 70 20
e 70 16
e 70 10
e 70 7
e 71 81
e 71 79
e 71 72
e 71 80
e 71 70
e 71 69
e 71 68
e 71 67
e 71 66
e 71 65
e 71 64
e 71 63
e 71 62
e 71 61
e 71 53
e 71 51
e 71 44
e 71 41
e 71 35
e 71 31
e 71 26
e 71 21
e 71 17
e 71 11
e 71 8
e 71 1
e 72 80
e 72 81
e 72 71
e 72 70
e 72 69
e 72 68
e 72 67
e 72 66
e 72 65
e 72 64
e 72 63
e 72 62
e 72 54
e 72 52
e 72 45
e 72 42
e 72 36
e 72 32
e 72 27
e 72 22
e 72 18
e 72 12
e 72 9
e 72 2
e 73 74
e 73 75
e 73 76
e 73 77
e 73 78
e 73 79
e 73 80
e 73 81
e 73 65
e 73 64
e 73 57
e 73 55
e 73 49
e 73 46
e 73 41
e 73 37
e 73 33
e 73 28
e 73 25
e 73 19
e 73 17
e 73 10
e 73 9
e 73 1
e 74 75
e 74 76
e 74 77
e 74 78
e 74 79
e 74 80
e 74 81
e 74 73
e 74 66
e 74 65
e 74 64
e 74 58
e 74 56
e 74 50
e 74 47
e 74 42
e 74 38
e 74 34
e 74 29
e 74 26
e 74 20
e 74 18
e 74 11
e 74 2
e 75 76
e 75 77
e 75 78
e 75 79
e 75 80
e 75 81
e 75 74
e 75 73
e 75 67
e 75 66
e 75 65
e 75 59
e 75 57
e 75 55
e 75 51
e 75 48
e 75 43
e 75 39
e 75 35
e 75 30
e 75 27
e 75 21
e 75 12
e 75 3
e 76 77
e 76 78
e 76 79
e 76 80
e 76 81
e 76 75
e 76 74
e 76 73
e 76 68
e 76 67
e 76 66
e 76 60
e 76 58
e 76 56
e 76 52
e 76 49
e 76 46
e 76 44
e 76 40
e 76 36
e 76 31
e 76 22
e 76 13
e 76 4
e 77 78
e 77 79
e 77 80
e 77 81
e 77 76
e 77 75
e 77 74
e 77 73
e 77 69
e 77 68
e 77 67
e 77 61
e 77 59
e 77 57
e 77 53
e 77 50
e 77 47
e 77 45
e 77 41
e 77 37
e 77 32
e 77 23
e 77 14
e 77 5
e 78 79
e 78 80
e 78 81
e 78 77
e 78 76
e 78 75
e 78 74
e 78 73
e 78 70
e 78 69
e 78 68
e 78 62
e 78 60
e 78 58
e 78 54
e 78 51
e 78 48
e 78 42
e 78 38
e 78 33
e 78 28
e 78 24
e 78 15
e 78 6
e 79 80
e 79 81
e 79 78
e 79 77
e 79 76
e 79 75
e 79 74
e 79 73
e 79 71
e 79 70
e 79 69
e 79 63
e 79 61
e 79 59
e 79 52
e 79 49
e 79 43
e 79 39
e 79 34
e 79 29
e 79 25
e 79 19
e 79 16
e 79 7
e 80 81
e 80 79
e 80 78
e 80 77
e 80 76
e 80 75
e 80 74
e 80 73
e 80 72
e 80 71
e 80 70
e 80 62
e 80 60
e 80 53
e 80 50
e 80 44
e 80 40
e 80 35
e 80 30
e 80 26
e 80 20
e 80 17
e 80 10
e 80 8
e 81 80
e 81 79
e 81 78
e 81 77
e 81 76
e 81 75
e 81 74
e 81 73
e 81 72
e 81 71
e 81 63
e 81 61
e 81 54
e 81 51
e 81 45
e 81 41
e 81 36
e 81 31
e 81 27
e 81 21
e 81 18
e 81 11
e 81 9
e 81 1
